DIMACS_lns/graph-1000-827.col
p edge 1000 1842
e 1 977
e 1 930
e 1 404
e 1 743
e 2 918
e 2 650
e 2 692
e 2 115
e 3 334
e 3 359
e 3 684
e 5 689
e 5 762
e 5 165
e 5 290
e 5 773
e 6 539
e 6 633
e 6 320
e 6 528
e 7 520
e 7 803
e 7 505
e 8 328
e 8 136
e 8 491
e 8 351
e 8 842
e 9 258
e 9 990
e 9 798
e 9 398
e 9 464
e 9 189
e 9 337
e 10 213
e 10 413
e 10 894
e 10 477
e 10 528
e 10 673
e 10 54
e 11 481
e 11 367
e 11 913
e 11 483
e 11 718
e 13 53
e 13 279
e 13 922
e 15 261
e 15 591
e 15 392
e 15 336
e 16 370
e 16 215
e 16 796
e 16 1000
e 16 814
e 16 447
e 16 146
e 17 585
e 17 139
e 17 96
e 17 943
e 17 341
e 18 347
e 18 168
e 18 160
e 18 110
e 18 942
e 18 556
e 18 700
e 20 231
e 20 720
e 20 203
e 21 266
e 21 502
e 21 771
e 21 986
e 22 203
e 22 649
e 22 426
e 22 908
e 22 806
e 22 917
e 22 747
e 23 194
e 23 157
e 23 407
e 23 296
e 24 366
e 24 185
e 24 941
e 25 543
e 25 436
e 25 384
e 25 406
e 28 75
e 28 678
e 28 366
e 28 593
e 28 601
e 28 897
e 29 974
e 29 511
e 29 454
e 29 826
e 29 486
e 30 900
e 30 719
e 30 426
e 30 716
e 30 255
e 30 633
e 30 187
e 32 141
e 32 116
e 32 280
e 32 811
e 32 922
e 33 869
e 33 489
e 33 699
e 33 991
e 33 68
e 33 944
e 34 958
e 34 181
e 34 244
e 34 709
e 34 808
e 36 285
e 36 586
e 36 622
e 36 276
e 36 208
e 36 442
e 39 543
e 39 905
e 39 209
e 39 398
e 39 658
e 39 94
e 41 956
e 41 922
e 41 201
e 41 830
e 42 999
e 42 372
e 42 790
e 42 738
e 42 495
e 42 181
e 42 631
e 42 520
e 42 380
e 44 975
e 44 950
e 44 456
e 47 298
e 47 388
e 47 567
e 47 633
e 47 809
e 48 560
e 48 780
e 48 286
e 48 116
e 51 851
e 51 999
e 51 185
e 51 379
e 52 665
e 52 462
e 52 355
e 52 827
e 52 208
e 52 550
e 52 289
e 53 123
e 53 844
e 53 783
e 54 729
e 54 801
e 54 481
e 54 92
e 54 324
e 54 313
e 55 492
e 55 713
e 55 630
e 56 1000
e 56 388
e 56 612
e 56 455
e 57 732
e 57 261
e 57 380
e 58 504
e 58 325
e 58 617
e 59 567
e 59 456
e 59 676
e 59 876
e 61 231
e 61 185
e 61 745
e 61 112
e 62 731
e 62 378
e 62 700
e 62 323
e 62 67
e 64 138
e 64 561
e 64 697
e 64 811
e 66 332
e 66 444
e 66 853
e 66 683
e 66 234
e 66 543
e 67 718
e 67 694
e 68 331
e 68 851
e 68 844
e 69 772
e 69 891
e 69 915
e 69 212
e 69 269
e 72 852
e 72 730
e 72 548
e 72 374
e 72 924
e 73 323
e 73 444
e 73 400
e 74 906
e 74 660
e 74 834
e 74 878
e 75 260
e 75 515
e 75 873
e 75 255
e 75 560
e 76 355
e 76 881
e 76 980
e 77 410
e 77 602
e 77 208
e 77 351
e 78 319
e 78 855
e 78 761
e 78 118
e 78 702
e 78 941
e 78 343
e 78 106
e 79 121
e 79 320
e 79 920
e 79 575
e 80 789
e 80 593
e 80 474
e 80 147
e 81 233
e 81 611
e 81 714
e 81 606
e 81 941
e 81 423
e 82 944
e 82 905
e 82 630
e 82 99
e 82 173
e 82 432
e 82 513
e 84 335
e 84 121
e 84 438
e 84 281
e 84 497
e 84 645
e 85 319
e 85 886
e 85 563
e 85 896
e 85 797
e 86 745
e 86 263
e 86 906
e 86 933
e 86 415
e 86 675
e 87 408
e 87 303
e 87 774
e 87 665
e 87 103
e 87 478
e 87 191
e 87 654
e 89 683
e 89 601
e 89 545
e 89 245
e 89 864
e 90 863
e 90 378
e 90 776
e 91 373
e 91 905
e 91 384
e 92 501
e 92 795
e 92 771
e 93 150
e 93 757
e 93 281
e 94 336
e 94 844
e 94 441
e 94 305
e 94 875
e 95 139
e 95 909
e 95 592
e 95 615
e 95 511
e 95 995
e 95 111
e 95 751
e 95 728
e 96 351
e 96 445
e 96 182
e 96 471
e 96 853
e 99 363
e 99 259
e 99 989
e 100 425
e 100 581
e 100 910
e 101 429
e 101 698
e 101 685
e 102 866
e 102 508
e 102 188
e 102 234
e 102 437
e 102 510
e 102 951
e 103 741
e 103 345
e 103 407
e 104 758
e 104 971
e 104 632
e 104 430
e 106 331
e 106 382
e 107 408
e 107 830
e 107 796
e 108 620
e 108 329
e 108 355
e 108 449
e 108 257
e 108 690
e 108 911
e 109 730
e 109 462
e 109 351
e 109 123
e 110 161
e 110 694
e 110 343
e 111 735
e 111 581
e 111 663
e 111 752
e 111 504
e 111 339
e 111 747
e 112 894
e 112 609
e 112 398
e 113 786
e 113 519
e 113 874
e 113 218
e 113 601
e 113 917
e 114 578
e 114 461
e 114 335
e 115 715
e 115 671
e 116 672
e 116 947
e 116 503
e 118 699
e 118 515
e 118 852
e 118 866
e 119 179
e 119 740
e 119 436
e 119 553
e 119 347
e 120 571
e 120 505
e 120 424
e 120 900
e 120 407
e 120 147
e 120 225
e 120 984
e 121 797
e 121 365
e 121 189
e 121 393
e 121 255
e 121 593
e 122 738
e 122 226
e 122 704
e 123 864
e 123 727
e 125 341
e 125 371
e 125 294
e 126 617
e 126 889
e 126 298
e 128 922
e 128 303
e 128 891
e 128 349
e 130 138
e 130 168
e 130 957
e 130 409
e 130 738
e 130 770
e 134 148
e 134 160
e 134 954
e 134 971
e 135 841
e 135 194
e 135 581
e 136 714
e 136 979
e 136 392
e 137 372
e 137 459
e 137 891
e 138 403
e 138 469
e 139 386
e 140 919
e 140 318
e 140 266
e 141 379
e 141 780
e 141 734
e 141 629
e 143 613
e 143 573
e 143 273
e 143 799
e 143 738
e 143 306
e 144 941
e 144 660
e 144 989
e 144 895
e 144 618
e 146 240
e 146 409
e 146 646
e 146 618
e 146 853
e 147 916
e 147 286
e 147 670
e 148 936
e 148 674
e 148 641
e 148 678
e 148 895
e 148 610
e 149 182
e 149 954
e 149 486
e 149 431
e 150 566
e 150 455
e 150 689
e 150 758
e 151 670
e 151 473
e 151 505
e 152 279
e 152 700
e 152 558
e 152 531
e 152 873
e 153 613
e 153 513
e 153 827
e 154 950
e 154 193
e 154 167
e 154 612
e 156 300
e 156 815
e 156 272
e 156 933
e 156 508
e 157 769
e 157 698
e 157 397
e 159 989
e 159 626
e 159 230
e 160 369
e 161 223
e 161 558
e 161 553
e 161 427
e 161 277
e 161 777
e 161 434
e 161 230
e 163 276
e 163 653
e 163 632
e 163 746
e 164 359
e 164 751
e 164 259
e 164 644
e 165 276
e 165 734
e 165 847
e 167 268
e 167 432
e 167 323
e 168 245
e 169 939
e 169 491
e 169 368
e 170 518
e 170 702
e 170 794
e 170 570
e 171 897
e 171 967
e 171 924
e 172 291
e 172 870
e 172 310
e 173 900
e 173 562
e 173 270
e 173 690
e 173 249
e 174 202
e 174 689
e 174 984
e 174 571
e 175 328
e 175 178
e 175 970
e 175 609
e 175 802
e 176 708
e 176 230
e 176 875
e 176 378
e 178 332
e 178 511
e 179 243
e 179 905
e 179 708
e 179 992
e 180 488
e 180 844
e 180 411
e 181 445
e 181 695
e 182 803
e 182 734
e 183 213
e 183 345
e 183 777
e 184 931
e 184 768
e 184 495
e 184 228
e 185 328
e 185 567
e 186 497
e 186 906
e 186 966
e 187 535
e 187 238
e 187 206
e 188 685
e 188 325
e 188 696
e 188 501
e 188 379
e 189 463
e 189 678
e 190 741
e 190 371
e 190 991
e 190 608
e 191 459
e 191 811
e 191 877
e 191 593
e 191 957
e 192 551
e 192 285
e 192 764
e 193 208
e 193 941
e 194 350
e 194 603
e 194 942
e 194 868
e 194 398
e 194 809
e 195 214
e 195 999
e 195 650
e 196 692
e 196 440
e 196 221
e 197 249
e 197 760
e 197 718
e 197 716
e 198 869
e 198 496
e 198 720
e 198 274
e 200 910
e 200 751
e 200 342
e 201 478
e 201 402
e 201 391
e 201 420
e 201 751
e 201 474
e 201 293
e 201 880
e 202 526
e 202 993
e 203 214
e 203 497
e 203 403
e 203 768
e 203 445
e 203 545
e 203 308
e 203 852
e 204 999
e 204 403
e 204 305
e 206 467
e 206 336
e 206 734
e 206 489
e 206 866
e 206 506
e 207 889
e 207 630
e 207 485
e 207 492
e 207 679
e 207 268
e 208 286
e 208 481
e 208 528
e 209 649
e 209 589
e 209 977
e 209 646
e 212 884
e 212 259
e 212 705
e 213 640
e 213 918
e 213 598
e 213 902
e 214 986
e 214 947
e 214 252
e 214 473
e 214 694
e 215 642
e 215 524
e 216 263
e 216 945
e 216 905
e 217 951
e 217 253
e 217 738
e 218 772
e 218 319
e 218 424
e 219 982
e 219 577
e 219 880
e 219 320
e 221 365
e 221 530
e 221 371
e 222 990
e 222 930
e 222 344
e 223 667
e 223 237
e 223 727
e 223 650
e 224 905
e 224 362
e 224 677
e 225 811
e 225 508
e 225 389
e 225 896
e 225 915
e 226 490
e 226 458
e 226 944
e 228 455
e 228 490
e 228 757
e 229 940
e 229 431
e 229 403
e 229 862
e 229 459
e 229 391
e 230 899
e 230 274
e 230 673
e 230 556
e 231 957
e 231 553
e 231 665
e 233 749
e 233 245
e 233 293
e 233 765
e 234 591
e 234 289
e 234 694
e 234 378
e 235 423
e 235 713
e 235 820
e 235 993
e 237 547
e 237 778
e 237 400
e 238 409
e 238 401
e 238 855
e 238 617
e 239 743
e 239 730
e 239 463
e 239 904
e 239 993
e 239 795
e 239 673
e 239 783
e 240 284
e 240 443
e 241 914
e 241 713
e 241 827
e 241 478
e 241 408
e 242 363
e 242 619
e 242 566
e 242 532
e 242 665
e 242 372
e 243 745
e 243 759
e 244 690
e 244 719
e 245 591
e 245 649
e 249 611
e 249 980
e 252 613
e 252 826
e 253 539
e 253 941
e 253 601
e 253 699
e 253 909
e 253 817
e 255 874
e 255 847
e 256 967
e 256 809
e 256 581
e 257 532
e 257 512
e 257 986
e 258 288
e 258 951
e 258 991
e 258 915
e 259 999
e 259 979
e 259 972
e 260 324
e 260 443
e 260 441
e 260 981
e 260 642
e 261 699
e 261 495
e 262 428
e 262 404
e 262 443
e 262 492
e 263 293
e 264 520
e 264 341
e 264 431
e 264 920
e 266 388
e 266 632
e 268 512
e 268 410
e 268 476
e 268 500
e 268 303
e 268 413
e 269 631
e 269 844
e 269 693
e 269 997
e 269 825
e 269 432
e 270 381
e 270 432
e 270 838
e 270 601
e 270 720
e 270 577
e 270 282
e 272 400
e 272 590
e 272 968
e 272 939
e 273 620
e 273 677
e 273 501
e 274 580
e 274 638
e 274 491
e 274 344
e 275 920
e 275 896
e 275 626
e 275 428
e 276 490
e 277 310
e 277 900
e 279 449
e 279 752
e 279 658
e 279 532
e 280 906
e 280 365
e 280 307
e 281 891
e 281 729
e 282 991
e 282 365
e 282 740
e 282 905
e 282 646
e 284 571
e 284 574
e 284 618
e 285 441
e 285 337
e 285 806
e 285 923
e 286 381
e 286 614
e 286 359
e 286 870
e 288 823
e 288 778
e 288 400
e 288 474
e 288 723
e 288 785
e 289 975
e 289 796
e 289 577
e 289 519
e 290 500
e 290 350
e 291 331
e 291 737
e 291 584
e 291 420
e 291 539
e 291 817
e 292 807
e 292 305
e 292 327
e 292 414
e 292 933
e 292 458
e 292 825
e 292 333
e 293 681
e 293 886
e 294 754
e 294 829
e 295 564
e 295 984
e 295 506
e 296 622
e 296 992
e 296 928
e 298 658
e 298 597
e 299 873
e 299 479
e 299 671
e 300 746
e 300 656
e 300 857
e 300 481
e 300 324
e 301 780
e 301 559
e 301 503
e 301 341
e 301 705
e 303 604
e 303 755
e 303 619
e 303 423
e 303 888
e 305 504
e 305 778
e 305 984
e 305 977
e 305 973
e 306 853
e 306 374
e 307 790
e 307 822
e 307 703
e 307 852
e 308 732
e 308 725
e 308 436
e 308 505
e 310 995
e 310 611
e 310 595
e 310 355
e 313 368
e 313 903
e 313 842
e 313 703
e 315 906
e 315 683
e 315 699
e 315 847
e 318 799
e 318 379
e 318 842
e 319 677
e 319 863
e 319 851
e 322 684
e 322 712
e 322 559
e 323 651
e 323 767
e 324 341
e 324 506
e 324 800
e 324 639
e 324 735
e 325 709
e 325 492
e 327 489
e 327 535
e 327 803
e 328 548
e 328 937
e 329 956
e 329 902
e 329 559
e 331 636
e 331 441
e 331 518
e 331 586
e 332 437
e 332 650
e 332 656
e 333 951
e 333 912
e 333 924
e 333 886
e 333 510
e 334 429
e 334 481
e 335 567
e 335 391
e 335 627
e 335 365
e 336 556
e 336 778
e 337 685
e 338 725
e 338 764
e 338 505
e 338 635
e 339 801
e 339 690
e 339 872
e 339 404
e 339 905
e 341 874
e 342 958
e 342 471
e 342 737
e 342 789
e 343 682
e 343 743
e 344 365
e 344 976
e 345 658
e 345 558
e 345 876
e 345 734
e 347 933
e 347 620
e 349 615
e 349 521
e 349 476
e 350 913
e 350 915
e 350 953
e 350 593
e 351 947
e 351 656
e 351 496
e 351 856
e 351 681
e 355 512
e 355 579
e 355 642
e 355 378
e 358 556
e 358 637
e 358 463
e 358 956
e 359 767
e 362 430
e 362 425
e 362 864
e 363 751
e 363 746
e 363 646
e 363 446
e 363 795
e 364 699
e 364 970
e 364 853
e 365 734
e 365 551
e 365 659
e 366 663
e 366 912
e 366 655
e 367 958
e 367 860
e 368 496
e 368 475
e 368 573
e 369 734
e 369 608
e 370 789
e 370 575
e 370 896
e 370 439
e 370 381
e 371 563
e 371 724
e 371 931
e 372 401
e 372 803
e 372 442
e 372 764
e 372 725
e 372 461
e 373 619
e 373 980
e 373 953
e 373 467
e 373 749
e 374 727
e 374 916
e 374 488
e 374 419
e 374 547
e 379 933
e 380 814
e 382 488
e 382 451
e 384 977
e 384 873
e 384 982
e 386 860
e 386 890
e 386 978
e 386 995
e 386 476
e 388 423
e 388 985
e 388 824
e 388 434
e 388 582
e 388 655
e 389 742
e 389 391
e 391 913
e 391 751
e 391 996
e 391 951
e 391 549
e 391 522
e 391 860
e 392 490
e 392 886
e 393 981
e 393 777
e 393 667
e 393 562
e 393 689
e 393 429
e 393 550
e 395 915
e 395 677
e 395 429
e 396 863
e 396 852
e 396 531
e 397 1000
e 397 798
e 398 880
e 399 915
e 399 984
e 399 483
e 400 581
e 401 787
e 401 769
e 401 637
e 401 481
e 402 928
e 402 464
e 403 629
e 404 436
e 404 501
e 404 988
e 404 411
e 404 815
e 404 790
e 404 920
e 406 735
e 406 638
e 406 899
e 406 463
e 406 870
e 407 891
e 408 481
e 408 863
e 409 438
e 409 988
e 409 939
e 410 750
e 410 776
e 410 521
e 410 520
e 411 543
e 412 891
e 412 941
e 412 490
e 413 915
e 413 825
e 414 923
e 414 794
e 415 597
e 415 977
e 415 916
e 415 459
e 419 868
e 419 592
e 419 613
e 419 922
e 420 485
e 420 902
e 420 584
e 423 803
e 424 732
e 424 807
e 425 813
e 425 620
e 425 800
e 425 948
e 426 975
e 427 918
e 427 566
e 428 985
e 428 889
e 429 943
e 429 440
e 429 591
e 429 834
e 430 621
e 430 704
e 430 772
e 431 787
e 431 853
e 434 565
e 437 693
e 437 695
e 438 663
e 439 855
e 439 497
e 440 626
e 441 676
e 441 639
e 442 751
e 442 721
e 442 704
e 442 746
e 444 522
e 444 494
e 444 466
e 444 630
e 444 497
e 445 725
e 445 975
e 445 972
e 445 876
e 445 723
e 446 602
e 446 973
e 447 580
e 447 570
e 447 751
e 449 807
e 451 969
e 451 588
e 451 541
e 453 973
e 453 520
e 453 569
e 453 589
e 453 714
e 453 588
e 454 915
e 454 626
e 455 703
e 455 530
e 455 814
e 456 947
e 456 467
e 458 734
e 458 957
e 459 574
e 459 542
e 459 635
e 461 754
e 461 852
e 461 873
e 461 745
e 462 627
e 462 602
e 462 721
e 463 794
e 463 772
e 464 737
e 466 689
e 466 524
e 466 796
e 467 723
e 467 696
e 467 627
e 469 798
e 469 729
e 469 549
e 469 617
e 470 491
e 470 852
e 470 620
e 471 580
e 471 598
e 471 569
e 471 658
e 471 528
e 471 618
e 471 474
e 473 792
e 473 665
e 474 751
e 474 571
e 474 595
e 475 683
e 475 903
e 475 954
e 476 649
e 476 971
e 476 746
e 476 598
e 477 636
e 477 573
e 477 872
e 479 677
e 479 794
e 481 492
e 481 644
e 483 778
e 483 656
e 485 800
e 485 967
e 485 812
e 485 774
e 486 720
e 486 737
e 488 492
e 489 716
e 489 730
e 489 973
e 489 811
e 490 626
e 490 923
e 491 558
e 492 917
e 492 734
e 494 573
e 494 967
e 495 649
e 495 547
e 496 936
e 496 672
e 496 806
e 497 761
e 497 996
e 500 862
e 500 528
e 501 874
e 501 969
e 501 862
e 502 603
e 502 834
e 503 844
e 503 780
e 503 758
e 503 777
e 503 967
e 504 944
e 504 895
e 505 581
e 505 758
e 505 685
e 506 640
e 506 658
e 506 863
e 508 548
e 509 971
e 509 670
e 509 691
e 510 608
e 511 691
e 511 615
e 512 565
e 512 609
e 513 637
e 515 572
e 515 869
e 515 762
e 518 857
e 519 765
e 519 767
e 520 853
e 520 524
e 520 856
e 521 827
e 521 945
e 521 606
e 522 577
e 524 578
e 525 899
e 525 966
e 525 902
e 525 723
e 526 979
e 526 675
e 526 971
e 526 614
e 528 601
e 528 708
e 528 636
e 529 736
e 529 903
e 529 945
e 530 572
e 531 911
e 531 715
e 531 874
e 532 880
e 532 604
e 532 615
e 535 872
e 539 617
e 539 588
e 541 565
e 541 588
e 542 551
e 542 692
e 543 625
e 545 813
e 545 997
e 546 624
e 546 897
e 546 786
e 546 697
e 548 886
e 549 937
e 550 611
e 550 567
e 551 601
e 551 968
e 551 653
e 551 574
e 553 682
e 556 642
e 556 855
e 558 900
e 558 966
e 558 779
e 559 831
e 560 895
e 560 690
e 561 595
e 561 808
e 562 749
e 563 573
e 563 682
e 563 570
e 564 976
e 564 625
e 566 567
e 567 714
e 567 801
e 569 579
e 571 823
e 571 786
e 572 592
e 572 593
e 572 768
e 572 641
e 573 841
e 574 619
e 574 942
e 574 808
e 574 678
e 575 947
e 575 896
e 577 719
e 578 792
e 578 626
e 578 823
e 579 825
e 579 768
e 579 620
e 580 865
e 580 884
e 581 933
e 581 682
e 582 713
e 582 640
e 584 841
e 584 904
e 585 827
e 585 803
e 586 796
e 586 588
e 588 944
e 588 633
e 589 737
e 589 692
e 590 712
e 590 682
e 591 762
e 592 779
e 593 761
e 595 694
e 595 646
e 597 705
e 597 723
e 601 609
e 602 996
e 603 617
e 603 640
e 604 939
e 606 942
e 606 830
e 606 677
e 608 713
e 608 917
e 609 950
e 610 967
e 610 799
e 610 718
e 611 704
e 611 890
e 611 973
e 611 673
e 612 999
e 612 983
e 613 829
e 614 621
e 614 626
e 615 868
e 615 742
e 615 853
e 615 733
e 615 761
e 617 795
e 618 815
e 618 728
e 619 880
e 620 794
e 620 984
e 621 891
e 622 968
e 622 651
e 622 636
e 622 936
e 624 919
e 624 820
e 624 755
e 625 977
e 625 630
e 625 730
e 629 974
e 630 970
e 630 695
e 630 653
e 630 941
e 631 916
e 631 895
e 633 801
e 633 999
e 633 905
e 635 659
e 636 829
e 636 919
e 637 977
e 637 940
e 638 751
e 638 986
e 639 679
e 639 937
e 640 948
e 640 911
e 641 741
e 641 685
e 642 742
e 644 910
e 645 702
e 645 786
e 645 737
e 645 715
e 646 1000
e 646 785
e 649 675
e 649 910
e 650 860
e 650 671
e 651 769
e 651 907
e 651 827
e 653 918
e 654 947
e 654 983
e 654 697
e 654 974
e 655 979
e 655 847
e 655 868
e 656 759
e 656 771
e 656 731
e 656 932
e 657 940
e 657 702
e 657 659
e 658 969
e 658 897
e 659 874
e 660 865
e 660 928
e 663 932
e 665 954
e 665 755
e 665 754
e 667 912
e 667 713
e 670 692
e 670 823
e 671 948
e 671 789
e 672 729
e 673 965
e 674 758
e 674 873
e 675 928
e 676 734
e 676 737
e 677 776
e 677 738
e 677 757
e 679 699
e 679 957
e 681 760
e 681 838
e 681 827
e 683 779
e 684 758
e 685 778
e 685 866
e 685 888
e 689 941
e 690 924
e 691 727
e 692 807
e 693 914
e 694 980
e 695 863
e 695 956
e 696 822
e 697 941
e 698 982
e 699 988
e 699 950
e 702 785
e 702 731
e 703 754
e 705 968
e 705 754
e 708 761
e 709 747
e 709 822
e 712 924
e 712 878
e 712 947
e 713 913
e 714 881
e 714 973
e 714 997
e 715 896
e 716 724
e 719 770
e 721 734
e 721 897
e 724 769
e 724 857
e 724 733
e 725 769
e 728 797
e 729 736
e 729 930
e 729 985
e 730 900
e 732 802
e 733 740
e 733 923
e 733 750
e 734 801
e 734 945
e 736 886
e 737 945
e 738 875
e 740 884
e 741 908
e 741 795
e 741 981
e 742 831
e 742 982
e 743 758
e 743 997
e 746 965
e 746 830
e 747 982
e 747 953
e 749 815
e 750 761
e 750 812
e 751 958
e 751 820
e 752 792
e 752 800
e 754 970
e 755 980
e 755 799
e 757 910
e 758 979
e 759 950
e 760 779
e 760 999
e 761 903
e 762 975
e 762 923
e 765 931
e 767 967
e 767 899
e 768 899
e 768 874
e 768 973
e 770 829
e 771 803
e 772 826
e 773 813
e 773 977
e 774 881
e 774 969
e 777 1000
e 779 976
e 780 881
e 783 999
e 787 915
e 790 827
e 790 916
e 792 909
e 792 968
e 794 978
e 794 972
e 794 817
e 794 807
e 794 908
e 796 907
e 801 948
e 801 958
e 802 830
e 807 931
e 811 922
e 811 923
e 812 965
e 812 896
e 820 906
e 822 912
e 822 857
e 823 895
e 823 897
e 824 852
e 824 872
e 825 982
e 826 905
e 829 983
e 831 853
e 838 979
e 841 940
e 844 940
e 851 975
e 853 922
e 856 975
e 857 922
e 865 924
e 866 907
e 866 878
e 869 965
e 870 989
e 875 933
e 877 928
e 877 880
e 880 995
e 888 992
e 889 966
e 890 1000
e 891 985
e 894 972
e 896 923
e 897 904
e 900 981
e 902 922
e 906 936
e 908 914
e 908 931
e 910 1000
e 917 967
e 924 978
e 924 990
e 924 950
e 932 980
e 939 1000
e 939 992
e 943 973
e 951 999
